DIMACS2
20 282 182 94 62 197 188 79 74 42 75 199 288 134 110 215 313 124 99 308 145
p edge 320 874
e 0 91 1.0
e 0 57 1.0
e 1 106 3.0
e 1 165 5.0
e 2 225 1.0
e 2 312 2.0
e 3 199 26.0
e 3 219 1.0
e 4 234 1.0
e 4 150 1.0
e 5 95 4.0
e 5 142 3.0
e 6 20 1.0
e 6 96 2.0
e 7 115 2.0
e 7 96 2.0
e 8 62 20.0
e 8 213 2.0
e 9 235 1.0
e 9 142 1.0
e 10 7 1.0
e 10 38 1.0
e 11 268 5.0
e 11 18 1.0
e 12 279 1.0
e 12 159 1.0
e 13 195 1.0
e 13 10 2.0
e 14 22 1.0
e 14 310 2.0
e 15 116 1.0
e 15 183 1.0
e 16 61 1.0
e 16 10 1.0
e 17 206 1.0
e 17 317 1.0
e 18 109 1.0
e 18 12 2.0
e 19 199 31.0
e 19 261 2.0
e 20 134 2.0
e 20 151 1.0
e 21 65 1.0
e 21 167 2.0
e 22 138 2.0
e 22 10 1.0
e 23 119 1.0
e 23 160 1.0
e 24 96 1.0
e 24 216 1.0
e 25 52 4.0
e 25 97 5.0
e 26 277 1.0
e 26 40 1.0
e 27 124 29.0
e 27 304 2.0
e 28 176 2.0
e 28 139 1.0
e 29 28 1.0
e 29 156 1.0
e 30 286 1.0
e 30 114 1.0
e 31 248 1.0
e 31 172 1.0
e 32 235 1.0
e 32 163 1.0
e 33 273 1.0
e 33 152 1.0
e 34 300 1.0
e 34 64 2.0
e 35 212 1.0
e 35 296 1.0
e 36 45 3.0
e 36 66 1.0
e 37 30 1.0
e 37 274 1.0
e 38 269 1.0
e 38 232 1.0
e 39 281 1.0
e 39 194 2.0
e 40 206 1.0
e 40 258 1.0
e 41 94 44.0
e 41 201 3.0
e 42 260 41.0
e 42 109 22.0
e 42 56 7.0
e 42 283 40.0
e 42 251 31.0
e 42 124 33.0
e 42 93 14.0
e 42 214 36.0
e 42 110 48.0
e 42 178 16.0
e 42 180 22.0
e 42 280 23.0
e 42 130 5.0
e 42 155 38.0
e 42 151 37.0
e 43 224 2.0
e 43 87 2.0
e 44 294 1.0
e 44 225 1.0
e 45 64 3.0
e 45 288 12.0
e 46 122 1.0
e 46 316 1.0
e 47 309 1.0
e 47 243 1.0
e 48 155 1.0
e 48 255 1.0
e 49 88 1.0
e 49 261 1.0
e 50 5 1.0
e 50 242 1.0
e 51 168 1.0
e 51 104 1.0
e 52 142 1.0
e 52 133 1.0
e 53 253 1.0
e 53 111 1.0
e 54 9 1.0
e 54 103 1.0
e 55 250 2.0
e 55 44 1.0
e 56 284 1.0
e 56 248 1.0
e 57 35 1.0
e 57 83 1.0
e 58 313 18.0
e 58 173 1.0
e 59 307 2.0
e 59 118 1.0
e 60 245 2.0
e 60 84 1.0
e 61 220 1.0
e 61 107 1.0
e 62 201 46.0
e 62 298 15.0
e 62 280 5.0
e 62 182 21.0
e 62 270 10.0
e 62 23 44.0
e 62 0 33.0
e 62 133 38.0
e 62 278 21.0
e 62 5 33.0
e 62 165 23.0
e 62 297 42.0
e 62 124 42.0
e 62 199 18.0
e 62 246 11.0
e 63 117 1.0
e 63 297 2.0
e 64 172 1.0
e 64 68 1.0
e 65 108 1.0
e 65 296 1.0
e 66 252 1.0
e 66 12 1.0
e 67 262 3.0
e 67 273 1.0
e 68 156 1.0
e 68 292 2.0
e 69 244 2.0
e 69 166 2.0
e 70 114 1.0
e 70 288 37.0
e 71 149 1.0
e 71 153 2.0
e 72 133 1.0
e 72 237 1.0
e 73 77 1.0
e 73 78 1.0
e 74 209 33.0
e 74 235 12.0
e 74 59 4.0
e 74 202 26.0
e 74 197 18.0
e 74 148 8.0
e 74 276 19.0
e 74 233 17.0
e 74 157 36.0
e 74 254 7.0
e 74 24 2.0
e 74 285 48.0
e 74 186 2.0
e 74 308 39.0
e 74 56 11.0
e 74 189 30.0
e 75 113 37.0
e 75 7 25.0
e 75 290 29.0
e 75 275 18.0
e 75 94 32.0
e 75 30 12.0
e 75 263 7.0
e 75 90 22.0
e 75 238 23.0
e 75 292 26.0
e 75 157 3.0
e 75 23 41.0
e 75 202 27.0
e 75 266 3.0
e 75 264 39.0
e 75 95 40.0
e 76 89 1.0
e 76 54 1.0
e 77 236 2.0
e 77 294 1.0
e 78 252 1.0
e 78 158 1.0
e 79 281 3.0
e 79 11 3.0
e 79 224 47.0
e 79 238 26.0
e 79 86 34.0
e 79 266 31.0
e 79 28 1.0
e 79 311 39.0
e 79 275 28.0
e 79 77 26.0
e 79 226 37.0
e 79 14 37.0
e 79 299 31.0
e 79 48 40.0
e 79 32 47.0
e 79 4 13.0
e 80 67 1.0
e 80 24 1.0
e 81 182 27.0
e 81 75 26.0
e 82 170 1.0
e 82 181 1.0
e 83 157 1.0
e 83 193 1.0
e 84 209 2.0
e 84 181 1.0
e 85 177 1.0
e 85 81 1.0
e 86 25 1.0
e 86 203 1.0
e 87 200 1.0
e 87 10 2.0
e 88 301 2.0
e 88 136 1.0
e 89 235 1.0
e 89 228 1.0
e 90 158 1.0
e 90 35 1.0
e 91 154 1.0
e 91 173 2.0
e 92 2 1.0
e 92 222 1.0
e 93 170 1.0
e 93 138 1.0
e 94 12 9.0
e 94 235 36.0
e 94 77 40.0
e 94 288 49.0
e 94 14 36.0
e 94 157 37.0
e 94 159 28.0
e 94 161 32.0
e 94 268 30.0
e 94 162 18.0
e 94 212 9.0
e 95 3 2.0
e 95 149 1.0
e 96 156 1.0
e 96 25 3.0
e 97 228 1.0
e 97 210 1.0
e 98 232 1.0
e 98 86 2.0
e 99 188 27.0
e 99 250 26.0
e 99 173 22.0
e 99 19 38.0
e 99 199 43.0
e 99 204 9.0
e 99 6 26.0
e 99 187 6.0
e 99 253 29.0
e 99 238 17.0
e 99 78 29.0
e 99 62 15.0
e 99 312 34.0
e 99 27 44.0
e 99 211 45.0
e 100 147 1.0
e 100 45 6.0
e 101 274 1.0
e 101 100 1.0
e 102 49 1.0
e 102 25 4.0
e 103 19 3.0
e 103 317 1.0
e 104 230 1.0
e 104 152 1.0
e 105 231 1.0
e 105 279 1.0
e 106 177 3.0
e 106 282 7.0
e 107 185 1.0
e 107 296 1.0
e 108 244 1.0
e 108 112 1.0
e 109 22 1.0
e 109 124 26.0
e 110 314 34.0
e 110 153 11.0
e 110 275 16.0
e 110 212 32.0
e 110 187 2.0
e 110 162 28.0
e 110 174 30.0
e 110 239 3.0
e 110 308 34.0
e 110 195 39.0
e 110 113 5.0
e 110 129 37.0
e 110 87 27.0
e 110 11 44.0
e 110 242 13.0
e 110 163 14.0
e 111 188 12.0
e 111 112 3.0
e 112 207 1.0
e 112 301 1.0
e 113 128 2.0
e 114 273 1.0
e 114 83 1.0
e 115 314 1.0
e 115 126 1.0
e 116 183 1.0
e 116 5 5.0
e 117 84 1.0
e 117 120 1.0
e 118 165 1.0
e 118 281 1.0
e 119 40 1.0
e 119 35 1.0
e 120 315 1.0
e 120 1 1.0
e 121 46 2.0
e 121 161 2.0
e 122 69 1.0
e 122 89 1.0
e 123 264 1.0
e 123 91 1.0
e 124 73 10.0
e 124 72 2.0
e 124 221 29.0
e 124 131 36.0
e 124 94 16.0
e 124 0 44.0
e 124 164 27.0
e 124 271 15.0
e 124 224 8.0
e 124 308 48.0
e 124 199 38.0
e 124 117 1.0
e 124 297 49.0
e 125 182 36.0
e 125 208 1.0
e 126 267 2.0
e 126 242 1.0
e 127 43 2.0
e 127 42 25.0
e 128 120 1.0
e 128 35 1.0
e 129 234 1.0
e 129 252 1.0
e 130 171 1.0
e 130 91 1.0
e 131 149 2.0
e 131 33 4.0
e 132 259 1.0
e 132 290 1.0
e 133 236 1.0
e 133 261 3.0
e 134 43 3.0
e 134 283 32.0
e 134 82 8.0
e 134 110 38.0
e 134 126 40.0
e 134 247 39.0
e 134 37 17.0
e 134 271 36.0
e 134 62 8.0
e 134 174 38.0
e 134 272 41.0
e 134 26 28.0
e 134 164 29.0
e 134 280 4.0
e 134 175 6.0
e 134 282 19.0
e 135 17 1.0
e 135 18 1.0
e 136 285 1.0
e 136 126 1.0
e 137 241 1.0
e 137 259 1.0
e 138 123 1.0
e 138 144 1.0
e 139 111 3.0
e 139 245 1.0
e 140 150 1.0
e 140 9 1.0
e 141 282 5.0
e 141 7 1.0
e 142 289 1.0
e 142 152 1.0
e 143 184 3.0
e 143 188 11.0
e 144 73 1.0
e 144 205 1.0
e 145 154 10.0
e 145 182 18.0
e 145 41 2.0
e 145 272 41.0
e 145 282 46.0
e 145 138 29.0
e 145 165 23.0
e 145 283 43.0
e 145 27 17.0
e 145 166 14.0
e 145 42 30.0
e 145 50 49.0
e 145 221 6.0
e 145 143 22.0
e 145 293 28.0
e 145 247 20.0
e 146 192 1.0
e 146 31 1.0
e 147 245 3.0
e 147 160 2.0
e 148 306 2.0
e 148 143 1.0
e 149 37 1.0
e 149 222 1.0
e 150 52 1.0
e 150 120 1.0
e 151 312 2.0
e 151 244 1.0
e 152 209 1.0
e 152 200 1.0
e 153 282 26.0
e 153 243 1.0
e 154 73 1.0
e 154 57 1.0
e 155 10 1.0
e 155 273 1.0
e 156 53 1.0
e 156 60 1.0
e 157 79 8.0
e 157 36 1.0
e 158 65 1.0
e 158 8 2.0
e 159 262 1.0
e 159 99 10.0
e 160 282 41.0
e 160 68 1.0
e 161 91 1.0
e 161 184 1.0
e 162 44 1.0
e 162 189 1.0
e 163 211 1.0
e 163 273 1.0
e 164 245 1.0
e 164 220 1.0
e 165 147 3.0
e 165 74 48.0
e 166 200 1.0
e 166 257 1.0
e 167 102 2.0
e 167 263 1.0
e 168 277 1.0
e 168 26 2.0
e 169 250 1.0
e 169 167 2.0
e 170 186 1.0
e 170 310 1.0
e 171 125 2.0
e 171 230 1.0
e 172 284 1.0
e 172 54 1.0
e 173 14 1.0
e 173 197 4.0
e 174 259 1.0
e 174 277 1.0
e 175 2 3.0
e 175 80 1.0
e 176 112 1.0
e 176 296 1.0
e 177 122 1.0
e 177 25 4.0
e 178 160 1.0
e 178 199 32.0
e 179 120 2.0
e 179 317 1.0
e 180 305 1.0
e 180 40 1.0
e 181 66 1.0
e 181 62 8.0
e 182 218 25.0
e 182 244 2.0
e 182 16 12.0
e 182 214 6.0
e 182 69 9.0
e 182 166 39.0
e 182 282 36.0
e 182 287 47.0
e 182 134 36.0
e 182 124 14.0
e 182 113 34.0
e 183 281 1.0
e 183 265 1.0
e 184 190 1.0
e 184 181 2.0
e 185 203 1.0
e 185 278 1.0
e 186 182 39.0
e 186 128 1.0
e 187 116 1.0
e 187 243 2.0
e 188 70 41.0
e 188 71 21.0
e 188 208 24.0
e 188 76 3.0
e 188 94 43.0
e 188 282 41.0
e 188 210 32.0
e 188 215 7.0
e 188 17 40.0
e 188 6 12.0
e 188 283 40.0
e 188 105 9.0
e 189 68 2.0
e 189 18 1.0
e 190 198 2.0
e 190 188 1.0
e 191 143 1.0
e 191 27 1.0
e 192 204 1.0
e 192 127 3.0
e 193 154 3.0
e 193 94 31.0
e 194 168 1.0
e 194 64 2.0
e 195 314 1.0
e 195 237 1.0
e 196 61 1.0
e 196 147 1.0
e 197 207 36.0
e 197 109 9.0
e 197 6 5.0
e 197 29 21.0
e 197 70 46.0
e 197 145 47.0
e 197 106 9.0
e 197 299 38.0
e 197 182 14.0
e 197 282 26.0
e 197 90 12.0
e 197 94 23.0
e 197 218 23.0
e 197 78 29.0
e 197 283 38.0
e 198 233 1.0
e 198 162 1.0
e 199 254 27.0
e 199 82 36.0
e 199 98 2.0
e 199 167 30.0
e 199 304 24.0
e 199 119 9.0
e 199 282 49.0
e 199 188 38.0
e 199 134 16.0
e 199 75 17.0
e 199 214 4.0
e 200 100 1.0
e 200 288 19.0
e 201 94 47.0
e 201 291 1.0
e 202 291 1.0
e 202 206 1.0
e 203 239 1.0
e 203 180 1.0
e 204 85 1.0
e 204 36 1.0
e 205 246 1.0
e 205 278 2.0
e 206 13 1.0
e 206 298 1.0
e 207 223 1.0
e 207 130 1.0
e 208 302 3.0
e 208 107 1.0
e 209 3 1.0
e 209 213 1.0
e 210 213 3.0
e 210 298 1.0
e 211 94 18.0
e 211 120 1.0
e 212 25 3.0
e 212 255 1.0
e 213 315 1.0
e 213 101 1.0
e 214 223 1.0
e 214 71 1.0
e 215 25 10.0
e 215 231 40.0
e 215 45 23.0
e 215 106 36.0
e 215 98 43.0
e 215 282 14.0
e 215 306 45.0
e 215 15 41.0
e 215 63 36.0
e 215 29 16.0
e 215 110 33.0
e 215 283 16.0
e 215 221 13.0
e 215 99 32.0
e 215 197 34.0
e 216 146 2.0
e 216 22 2.0
e 217 102 1.0
e 217 205 1.0
e 218 258 1.0
e 218 264 1.0
e 219 240 1.0
e 219 42 32.0
e 220 92 1.0
e 220 298 1.0
e 221 160 1.0
e 221 104 1.0
e 222 111 1.0
e 222 234 1.0
e 223 114 1.0
e 223 146 2.0
e 224 97 1.0
e 224 65 2.0
e 225 300 1.0
e 225 123 1.0
e 226 220 1.0
e 226 118 1.0
e 227 122 1.0
e 227 19 2.0
e 228 303 1.0
e 228 260 1.0
e 229 303 1.0
e 229 262 1.0
e 230 295 1.0
e 230 240 1.0
e 231 186 2.0
e 231 73 1.0
e 232 61 1.0
e 232 84 1.0
e 233 147 1.0
e 233 16 1.0
e 234 85 1.0
e 234 160 1.0
e 235 80 1.0
e 235 269 1.0
e 236 309 1.0
e 236 267 3.0
e 237 179 1.0
e 237 108 1.0
e 238 55 1.0
e 238 188 20.0
e 239 49 1.0
e 239 107 1.0
e 240 71 1.0
e 240 256 1.0
e 241 227 1.0
e 241 69 1.0
e 242 147 1.0
e 242 111 1.0
e 243 39 2.0
e 243 118 1.0
e 244 73 1.0
e 244 239 2.0
e 245 220 1.0
e 245 258 1.0
e 246 175 2.0
e 246 257 1.0
e 247 307 1.0
e 247 89 1.0
e 248 80 1.0
e 248 106 5.0
e 249 206 1.0
e 249 8 2.0
e 250 230 2.0
e 250 53 1.0
e 251 105 1.0
e 251 22 1.0
e 252 60 1.0
e 252 315 1.0
e 253 144 2.0
e 253 94 40.0
e 254 310 1.0
e 254 215 6.0
e 255 148 1.0
e 255 18 1.0
e 256 251 1.0
e 256 44 1.0
e 257 179 1.0
e 257 208 1.0
e 258 8 2.0
e 258 301 1.0
e 259 13 1.0
e 259 120 1.0
e 260 15 1.0
e 260 194 1.0
e 261 109 1.0
e 261 130 1.0
e 262 261 1.0
e 262 316 2.0
e 263 137 1.0
e 263 191 1.0
e 264 68 1.0
e 264 305 1.0
e 265 132 1.0
e 265 31 1.0
e 266 291 1.0
e 266 84 1.0
e 267 269 1.0
e 267 46 1.0
e 268 82 1.0
e 268 249 1.0
e 269 241 1.0
e 269 104 1.0
e 270 23 2.0
e 270 13 1.0
e 271 103 1.0
e 271 198 1.0
e 272 137 1.0
e 272 116 1.0
e 273 101 1.0
e 273 276 1.0
e 274 2 1.0
e 274 198 1.0
e 275 234 3.0
e 275 93 1.0
e 276 153 1.0
e 276 67 1.0
e 277 55 1.0
e 277 160 1.0
e 278 145 49.0
e 278 219 1.0
e 279 200 2.0
e 279 256 1.0
e 280 207 2.0
e 280 32 1.0
e 281 3 1.0
e 281 20 2.0
e 282 59 44.0
e 282 5 5.0
e 282 293 40.0
e 282 51 3.0
e 282 299 36.0
e 283 29 1.0
e 283 270 7.0
e 284 265 3.0
e 284 213 2.0
e 285 222 1.0
e 285 289 1.0
e 286 220 1.0
e 286 289 1.0
e 287 279 1.0
e 287 310 1.0
e 288 231 48.0
e 288 237 32.0
e 288 168 23.0
e 288 121 18.0
e 288 199 29.0
e 288 295 33.0
e 288 72 44.0
e 288 127 26.0
e 288 98 8.0
e 288 169 14.0
e 288 282 9.0
e 288 99 42.0
e 288 210 5.0
e 289 154 1.0
e 289 311 1.0
e 290 182 48.0
e 290 253 2.0
e 291 64 3.0
e 291 88 1.0
e 292 97 2.0
e 292 209 1.0
e 293 255 2.0
e 293 160 1.0
e 294 115 1.0
e 294 236 1.0
e 295 179 2.0
e 295 86 1.0
e 296 21 1.0
e 296 83 1.0
e 297 298 1.0
e 297 136 2.0
e 298 187 1.0
e 298 300 2.0
e 299 292 1.0
e 299 76 2.0
e 300 52 1.0
e 300 257 2.0
e 301 249 1.0
e 301 250 2.0
e 302 159 1.0
e 302 201 1.0
e 303 43 1.0
e 303 306 1.0
e 304 266 1.0
e 304 99 38.0
e 305 211 2.0
e 305 279 1.0
e 306 81 2.0
e 306 282 3.0
e 307 114 1.0
e 307 102 1.0
e 308 260 7.0
e 308 240 11.0
e 308 219 1.0
e 308 169 2.0
e 308 313 44.0
e 308 188 36.0
e 308 316 47.0
e 308 99 48.0
e 308 8 47.0
e 308 125 15.0
e 308 171 27.0
e 308 282 36.0
e 308 145 37.0
e 308 286 12.0
e 309 49 1.0
e 309 273 1.0
e 310 304 1.0
e 310 302 1.0
e 311 269 1.0
e 311 81 1.0
e 312 289 1.0
e 312 146 1.0
e 313 131 9.0
e 313 15 32.0
e 313 72 11.0
e 313 11 31.0
e 313 50 37.0
e 313 100 43.0
e 313 316 44.0
e 313 175 41.0
e 313 215 30.0
e 313 216 21.0
e 313 192 41.0
e 313 217 32.0
e 313 62 10.0
e 313 74 49.0
e 313 110 26.0
e 314 55 1.0
e 314 198 1.0
e 315 142 1.0
e 315 60 1.0
e 316 209 2.0
e 317 249 1.0
e 317 4 1.0
e 318 92 1.0
e 318 183 1.0
e 319 294 1.0
e 319 284 2.0
